circuit_heights=[3, 4, 5, 6, 7, 8, 9, 10, 13, 14, 15, 17, 24, 30, 33, 3, 4, 6, 10, 12, 14, 17, 33];
circuit_widths=[3, 3, 3, 3, 3, 3, 3, 3, 3, 3, 3, 3, 3, 3, 3, 4, 4, 4, 4, 4, 4, 4, 7];
max_height=297;
min_height=33;
n_circuits=23;
plate_width=33;
